RT is False
Default write of storage_offers_DA.csv just to have a file (but constraint should be inactive)
Reading model...
...model read.
creating competitive generators file...
...competitive generators recorded.
Loading data...
.. day-ahead data with real-time VRE data read.
Compiling instance...
...instance created.
Creating Offer Mitigation (model will solve as dispatch if TRUE)...
NOTE: storage offers will not be mitigated
...storage offer mitigation file created
Converting model to MPEC...
...converted
NOTE: initial MIP solve with only storage competitive to get feasible solution
Solving...

Welcome to IBM(R) ILOG(R) CPLEX(R) Interactive Optimizer 12.9.0.0
  with Simplex, Mixed Integer & Barrier Optimizers
5725-A06 5725-A29 5724-Y48 5724-Y49 5724-Y54 5724-Y55 5655-Y21
Copyright IBM Corp. 1988, 2019.  All Rights Reserved.

Type 'help' for a list of available commands.
Type 'help' followed by a command name for more
information on commands.

CPLEX> Logfile 'cplex.log' closed.
Logfile 'C:\Users\llavin\Desktop\test826\logs\tmpzlrk0ymq.cplex.log' open.
CPLEX> New value for parallel optimization mode: -1
CPLEX> New value for emphasis for MIP optimization: 1
CPLEX> New value for mixed integer optimality gap tolerance: 0.01
CPLEX> New value for integrality tolerance: 1e-12
CPLEX> New value for deterministic time limit in ticks: 75000
CPLEX> Problem 'C:\Users\llavin\Desktop\test826\logs\tmp1dlgttss.pyomo.lp' read.
Read time = 0.25 sec. (13.92 ticks)
CPLEX> Problem name         : C:\Users\llavin\Desktop\test826\logs\tmp1dlgttss.pyomo.lp
Objective sense      : Maximize
Variables            :   53809  [Nneg: 1,  Box: 22004,  Free: 4464,
                                 Binary: 27340]
Objective nonzeros   :    9029
Linear constraints   :  123253  [Less: 41346,  Greater: 59096,  Equal: 22811]
  Nonzeros           :  293217
  RHS nonzeros       :   67491

Variables            : Min LB: -5000.000        Max UB: 1000000.       
Objective nonzeros   : Min   : 0.1333333        Max   : 2500.000       
Linear constraints   :
  Nonzeros           : Min   : 0.1333333        Max   : 1000000.       
  RHS nonzeros       : Min   : 0.1333333        Max   : 1000000.       
CPLEX> CPXPARAM_Parallel                                -1
CPXPARAM_Emphasis_MIP                            1
CPXPARAM_DetTimeLimit                            75000
CPXPARAM_MIP_Tolerances_MIPGap                   0.01
CPXPARAM_MIP_Tolerances_Integrality              9.9999999999999998e-13
Tried aggregator 4 times.
MIP Presolve eliminated 88689 rows and 18992 columns.
MIP Presolve added 3380 rows and 0 columns.
MIP Presolve modified 24817 coefficients.
Aggregator did 13005 substitutions.
Reduced MIP has 24939 rows, 21256 columns, and 71719 nonzeros.
Reduced MIP has 8407 binaries, 0 generals, 0 SOSs, and 0 indicators.
Presolve time = 0.31 sec. (192.69 ticks)
Probing fixed 408 vars, tightened 3897 bounds.
Probing time = 0.06 sec. (19.19 ticks)
Tried aggregator 2 times.
MIP Presolve eliminated 924 rows and 820 columns.
MIP Presolve modified 3033 coefficients.
Aggregator did 24 substitutions.
Reduced MIP has 23991 rows, 20412 columns, and 68969 nonzeros.
Reduced MIP has 7998 binaries, 0 generals, 0 SOSs, and 0 indicators.
Presolve time = 0.11 sec. (89.42 ticks)
Probing fixed 0 vars, tightened 213 bounds.
Probing time = 0.13 sec. (23.09 ticks)
Clique table members: 45123.
MIP emphasis: integer feasibility.
MIP search method: dynamic search.
Parallel mode: opportunistic, using up to 32 threads.
Root relaxation solution time = 0.42 sec. (617.56 ticks)

        Nodes                                         Cuts/
   Node  Left     Objective  IInf  Best Integer    Best Bound    ItCnt     Gap

      0     0     3964.3813   152                   3964.3813     5185         
*     0+    0                         3964.3813     3964.3813             0.00%
      0     0        cutoff           3964.3813     3964.3813     5185    0.00%
Elapsed time = 1.63 sec. (1319.97 ticks, tree = 0.01 MB, solutions = 1)

Root node processing (before b&c):
  Real time             =    1.64 sec. (1321.92 ticks)
Parallel b&c, 32 threads:
  Real time             =    0.00 sec. (0.00 ticks)
  Sync time (average)   =    0.00 sec.
  Wait time (average)   =    0.00 sec.
                          ------------
Total (root+branch&cut) =    1.64 sec. (1321.92 ticks)

Solution pool: 1 solution saved.

MIP - Integer optimal solution:  Objective =  3.9643813170e+03
Solution time =    1.66 sec.  Iterations = 5185  Nodes = 0
Deterministic time = 1322.08 ticks  (798.35 ticks/sec)

CPLEX> Incumbent solution written to file 'C:\Users\llavin\Desktop\test826\logs\tmp_f5qiuw9.cplex.sol'.
CPLEX> NOTE: no warmstart specified for MIP iteration, default behavior is true
NOTE: resolving with all competitive generators using storage-only solution to warmstart
Solving...

Welcome to IBM(R) ILOG(R) CPLEX(R) Interactive Optimizer 12.9.0.0
  with Simplex, Mixed Integer & Barrier Optimizers
5725-A06 5725-A29 5724-Y48 5724-Y49 5724-Y54 5724-Y55 5655-Y21
Copyright IBM Corp. 1988, 2019.  All Rights Reserved.

Type 'help' for a list of available commands.
Type 'help' followed by a command name for more
information on commands.

CPLEX> Logfile 'cplex.log' closed.
Logfile 'C:\Users\llavin\Desktop\test826\logs\tmpvc6pw53h.cplex.log' open.
CPLEX> New value for parallel optimization mode: -1
CPLEX> New value for emphasis for MIP optimization: 1
CPLEX> New value for mixed integer optimality gap tolerance: 0.01
CPLEX> New value for integrality tolerance: 1e-12
CPLEX> New value for deterministic time limit in ticks: 75000
CPLEX> Problem 'C:\Users\llavin\Desktop\test826\logs\tmpdachuyy0.pyomo.lp' read.
Read time = 0.23 sec. (13.94 ticks)
CPLEX> MIP start file 'C:\Users\llavin\Desktop\test826\logs\tmpu4ffxset.cplex.mst' read.
CPLEX> Problem name         : C:\Users\llavin\Desktop\test826\logs\tmpdachuyy0.pyomo.lp
Objective sense      : Maximize
Variables            :   54529  [Nneg: 1,  Box: 22724,  Free: 4464,
                                 Binary: 27340]
Objective nonzeros   :    9725
Linear constraints   :  123253  [Less: 41346,  Greater: 59096,  Equal: 22811]
  Nonzeros           :  293217
  RHS nonzeros       :   67491

Variables            : Min LB: -5000.000        Max UB: 1000000.       
Objective nonzeros   : Min   : 0.1333333        Max   : 2500.000       
Linear constraints   :
  Nonzeros           : Min   : 0.1333333        Max   : 1000000.       
  RHS nonzeros       : Min   : 0.1333333        Max   : 1000000.       
CPLEX> CPXPARAM_Parallel                                -1
CPXPARAM_Emphasis_MIP                            1
CPXPARAM_DetTimeLimit                            75000
CPXPARAM_MIP_Tolerances_MIPGap                   0.01
CPXPARAM_MIP_Tolerances_Integrality              9.9999999999999998e-13
Warning:  No solution found from 1 MIP starts.
Retaining values of one MIP start for possible repair.
Tried aggregator 4 times.
MIP Presolve eliminated 88689 rows and 19712 columns.
MIP Presolve added 3380 rows and 0 columns.
MIP Presolve modified 24817 coefficients.
Aggregator did 13005 substitutions.
Reduced MIP has 24939 rows, 21256 columns, and 71719 nonzeros.
Reduced MIP has 8407 binaries, 0 generals, 0 SOSs, and 0 indicators.
Presolve time = 0.31 sec. (193.10 ticks)
Probing fixed 408 vars, tightened 3897 bounds.
Probing time = 0.06 sec. (19.19 ticks)
Tried aggregator 2 times.
MIP Presolve eliminated 924 rows and 820 columns.
MIP Presolve modified 3033 coefficients.
Aggregator did 24 substitutions.
Reduced MIP has 23991 rows, 20412 columns, and 68969 nonzeros.
Reduced MIP has 7998 binaries, 0 generals, 0 SOSs, and 0 indicators.
Presolve time = 0.11 sec. (89.42 ticks)
Probing fixed 0 vars, tightened 213 bounds.
Probing time = 0.14 sec. (23.09 ticks)
Clique table members: 45123.
MIP emphasis: integer feasibility.
MIP search method: dynamic search.
Parallel mode: opportunistic, using up to 32 threads.
Root relaxation solution time = 0.44 sec. (643.44 ticks)

        Nodes                                         Cuts/
   Node  Left     Objective  IInf  Best Integer    Best Bound    ItCnt     Gap

      0     0    73856.9588   222                  73856.9588     5774         
      0     0    73170.6087    85                    Cuts: 99     5897         
      0     0    72965.8320    78                    Cuts: 58     5948         
      0     0    72780.5597    83                    Cuts: 35     6004         
Repair heuristic found nothing.
      0    10    63886.7434    57                     Cuts: 9     6117         
Elapsed time = 4.03 sec. (1832.72 ticks, tree = 0.02 MB, solutions = 0)
    602   502    70480.0148    58                  72399.3453    12390         
   1097   757    56769.7013    34                  72399.3453    16280         
   1748  1359    64280.5626    24                  72399.3453    23571         
   2318  1666    29784.3789    24                  72399.3453    29263         
   2891  1923    28153.4902    34                  72399.3453    39033         
   3459  2278    45391.6592    32                  72399.3453    52085         
   4132  2762    infeasible                        72399.3453    62680         
   4764  3146   -21944.4992    36                  72399.3453    69000         
   5293  3700    -6351.7415   113                  72399.3453    85457         
   7463  5134  -220485.1115    99                  72261.3304   167802         
Elapsed time = 20.67 sec. (4935.98 ticks, tree = 75.38 MB, solutions = 0)
   8199  5940    22958.7834    91                  72261.3304   211320         
   9913   825    -9448.6587    65                  72261.3304   235461         
  12474  2692    63521.5265    66                  72261.3304   299127         
  15425  3698    55722.1700    50                  72261.3304   343828         
  18214  5245    48718.6613    39                  72261.3304   424153         
  20951  6083    46500.2421    35                  72261.3304   458347         
  23807  7567   -66258.7928    75                  72261.3304   521661         
  26124  9052    43083.4169    31                  72261.3304   596942         
  28945 10103   -55907.4686    64                  72261.3304   659973         
  31511 11053   -16591.6054    82                  72261.3304   713317         
Elapsed time = 79.05 sec. (16292.45 ticks, tree = 104.82 MB, solutions = 0)
  33760 11923    infeasible                        72261.3304   760384         
  36442 13147    56137.4525    30                  72261.3304   834898         
  39020 13671    -3187.7069    83                  72261.3304   865244         
  41498 15655    infeasible                        72261.3304   991936         
  43918 15927    38977.7106    76                  72261.3304  1006949         
  45756 18094    53306.3637    71                  72261.3304  1149505         
  47974 18736  -657021.6392    91                  72261.3304  1189079         
  50458 18539    infeasible                        72261.3304  1177193         
  52781 20932    43300.3841    35                  72261.3304  1320958         
  55224 22634    52646.0410    82                  72261.3304  1415503         
Elapsed time = 143.98 sec. (25832.59 ticks, tree = 299.78 MB, solutions = 1)
  57558 22578    51125.7124    59                  72261.3304  1414200         
  60071 24746    39900.4991    52                  72261.3304  1544242         
  62470 23469    27117.4365    70                  72261.3304  1468318         
  64885 25381    46228.8751    63                  72261.3304  1593387         
* 65577+ 7683                        47396.5793    72261.3304            52.46%
  68048 27044    infeasible          47396.5793    72261.3304  1728066   52.46%
  71008  7916    53459.4805    54    47396.5793    72261.3304  1845955   52.46%
  73938  8809        cutoff          47396.5793    72261.3304  1900745   52.46%
  76992  9587    47861.9271    30    56567.8876    72261.3304  1914191   27.74%
  80039 11489    70725.2741    58    56567.8876    72261.3304  1947240   27.74%
Elapsed time = 257.34 sec. (34679.87 ticks, tree = 613.11 MB, solutions = 2)
  83124 11338    50135.9739    26    56567.8876    72261.3304  1943851   27.74%
  86136 15718    61532.6627    42    56567.8876    72261.3304  2014092   27.74%
  88877 15812        cutoff          56567.8876    72261.3304  2016003   27.74%
  90933 18118    55958.2409     3    56567.8876    72261.3304  2067025   27.74%
  92427  7466        cutoff          56567.8876    72261.3304  2087647   27.74%
  93994  7443    62515.2951    38    56567.8876    72261.3304  2082762   27.74%
  96017  8504    infeasible          56567.8876    71925.4973  2144087   27.15%
  98841  8705    57332.4686    49    56567.8876    71925.4973  2145849   27.15%
 101950  8967    71192.6369    70    56567.8876    71925.4973  2149936   27.15%
 104596  9762        cutoff          56567.8876    71925.4973  2167773   27.15%
Elapsed time = 273.42 sec. (44221.03 ticks, tree = 268.25 MB, solutions = 2)
 105931 10325    58057.1107    50    56567.8876    71925.4973  2178201   27.15%
 106106 13829        cutoff          56567.8876    71906.0513  2270015   27.11%
 108088  1161        cutoff          56567.8876    71906.0513  2287384   27.11%
 109545  1786    61829.1939    49    56567.8876    71906.0513  2303255   27.11%
 110954  1964    66760.0643    43    56567.8876    71906.0513  2313369   27.11%
 112585  2231    66550.9006    49    56567.8876    71906.0513  2328512   27.11%
 113993  2700    67830.7120    71    56567.8876    71906.0513  2347248   27.11%
 115290  2968        cutoff          56567.8876    71906.0513  2365096   27.11%
 116305  3109    57237.0973    61    56567.8876    71906.0513  2373966   27.11%
 117352  3171    infeasible          56567.8876    71906.0513  2380219   27.11%
Elapsed time = 300.78 sec. (55519.05 ticks, tree = 85.25 MB, solutions = 2)
 118460  3236    63941.1443    69    56567.8876    71906.0513  2383774   27.11%
 119725  3592    60969.4387    80    56567.8876    71906.0513  2417768   27.11%
 120924  3677    57852.9131    66    56567.8876    71906.0513  2439474   27.11%
 122059  3502    58095.5621     3    56567.8876    71906.0513  2411460   27.11%
 123232  3585        cutoff          56567.8876    71906.0513  2417593   27.11%
*123542+ 3790                        56661.3973    71504.3698            26.20%
 124389  3685        cutoff          56661.3973    71330.7856  2439299   25.89%
 125530  3659        cutoff          58095.5621    71182.8592  2442881   22.53%
 126622  2769    infeasible          58095.5621    71182.8592  2482963   22.53%
 127664  3891    infeasible          58095.5621    71182.8592  2480112   22.53%
 128712  2844    61649.5069   111    58095.5621    71182.8592  2518897   22.53%
Elapsed time = 326.17 sec. (65063.94 ticks, tree = 38.31 MB, solutions = 4)
 129629  2764        cutoff          58095.5621    71182.8592  2483161   22.53%
 130434  2870    58367.3717    87    58095.5621    71182.8592  2519061   22.53%
 131124  3879    58544.6144    53    58095.5621    71182.8592  2482418   22.53%
 131671  2864    59693.0988    45    58095.5621    71182.8592  2521759   22.53%
 132147  2769    64009.9135    70    58095.5621    71182.8592  2485429   22.53%
 132651  2878    65281.8524    87    58095.5621    71182.8592  2496993   22.53%
 133134  2746    59846.2031    35    58095.5621    71182.8592  2502782   22.53%
 133530  2753        cutoff          58095.5621    71182.8592  2509833   22.53%
 133812  3029    58728.8965    35    58095.5621    71182.8592  2524214   22.53%
 133919  3060    60446.9460    29    58095.5621    71182.8592  2525131   22.53%
Elapsed time = 336.73 sec. (74638.31 ticks, tree = 40.40 MB, solutions = 4)

GUB cover cuts applied:  2
Cover cuts applied:  47
Implied bound cuts applied:  65
Flow cuts applied:  104
Mixed integer rounding cuts applied:  5
Gomory fractional cuts applied:  1

Root node processing (before b&c):
  Real time             =    2.67 sec. (1803.55 ticks)
Parallel b&c, 32 threads:
  Real time             =  334.44 sec. (73513.79 ticks)
  Sync time (average)   =    7.12 sec.
  Wait time (average)   =    0.47 sec.
                          ------------
Total (root+branch&cut) =  337.11 sec. (75317.34 ticks)

Solution pool: 4 solutions saved.

MIP - Deterministic time limit exceeded, integer feasible:  Objective =  5.8095562068e+04
Current MIP best bound =  7.0430761814e+04 (gap = 12335.2, 21.23%)
Solution time =  337.13 sec.  Iterations = 2623853  Nodes = 133934 (3415)
Deterministic time = 75317.49 ticks  (223.41 ticks/sec)

CPLEX> Incumbent solution written to file 'C:\Users\llavin\Desktop\test826\logs\tmph43o7r2h.cplex.sol'.
CPLEX> Exporting results... 
